60 50 6
0 1 0
1 2 0
2 3 0
3 4 0
4 5 0
6 7 1
7 8 1
8 9 1
9 10 1
10 11 1
12 13 2
13 14 2
14 15 2
15 16 2
16 17 2
18 19 3
19 20 3
20 21 3
21 22 3
22 23 3
24 25 4
25 26 4
26 27 4
27 28 4
28 29 4
30 31 5
31 32 5
32 33 5
33 34 5
34 35 5
36 37 6
37 38 6
38 39 6
39 40 6
40 41 6
42 43 7
43 44 7
44 45 7
45 46 7
46 47 7
48 49 8
49 50 8
50 51 8
51 52 8
52 53 8
54 55 9
55 56 9
56 57 9
57 58 9
58 59 9
1 0 333
1 1 991
1 2 996
1 3 123
1 4 145
1 5 234
1 0 333
1 1 111
1 2 663
1 3 456
1 4 785
1 5 532
1 0 252
1 1 222
1 2 222
1 3 789
1 4 214
1 5 586
1 0 222
1 1 204
1 2 114
1 3 876
1 4 752
1 5 532
1 0 255
1 1 477
1 2 123
1 3 543
1 4 143
1 5 142
1 0 555
1 1 566
1 2 456
1 3 210
1 4 698
1 5 573
1 0 558
1 1 899
1 2 789
1 3 124
1 4 532
1 5 12
1 0 888
1 1 965
1 2 876
1 3 537
1 4 145
1 5 14
1 0 889
1 1 588
1 2 543
1 3 854
1 4 247
1 5 527
1 0 999
1 1 889
1 2 210
1 3 632
1 4 451
1 5 856